luv_route.out
NAME : LUV.0.tour
COMMENT : Length = 0
COMMENT : Found by LKH [Keld Helsgaun] Wed Nov 29 17:10:01 2017
TYPE : TOUR
DIMENSION : 101
TOUR_SECTION
1
32
24
84
82
98
66
99
73
50
60
22
85
53
101
36
38
34
48
44
30
26
42
40
3
9
2
5
7
13
19
15
17
49
21
11
31
41
4
33
35
27
29
23
37
43
39
25
68
55
63
52
45
74
95
75
80
56
78
59
87
62
88
10
12
8
6
94
67
93
71
14
58
100
72
83
77
90
92
47
96
97
76
65
57
81
86
70
54
79
18
16
91
69
89
20
64
51
28
46
61
-1
EOF
